# Objective value = 1.9422534179658373e+03
x[0] 1
x[1] 1
x[2] 1
x[3] 0
x[4] 0
x[5] 1
x[6] 0
x[7] 0
x[8] 1
x[9] 1
x[10] 1
x[11] 0
x[12] 0
x[13] 0
x[14] 1
x[15] 1
x[16] 1
x[17] 0
x[18] 0
x[19] 0
x[20] 1
x[21] 0
x[22] 0
x[23] 0
x[24] 1
x[25] 1
x[26] 0
x[27] 1
x[28] 1
x[29] 1
x[30] 1
x[31] 0
x[32] 1
x[33] 1
x[34] 1
x[35] 1
x[36] 1
x[37] 0
x[38] 0
x[39] 1
x[40] 1
x[41] 1
x[42] 1
x[43] 1
x[44] 0
x[45] 0
x[46] 1
x[47] 0
x[48] 0
x[49] 1
x[50] 1
x[51] 0
x[52] 0
x[53] 0
x[54] 1
x[55] 1
x[56] 0
x[57] 1
x[58] 0
x[59] 0
x[60] 0
x[61] 0
x[62] 1
x[63] 1
x[64] 1
x[65] 1
x[66] 0
x[67] 1
x[68] 1
x[69] 0
x[70] 0
x[71] 0
x[72] 1
x[73] 0
x[74] 1
x[75] 1
x[76] 0
x[77] 0
x[78] 1
x[79] 1
x[80] 0
x[81] 0
x[82] 1
x[83] 1
x[84] 0
x[85] 0
x[86] 1
x[87] 0
x[88] 1
x[89] 1
x[90] 0
x[91] 1
x[92] 0
x[93] 1
x[94] 0
x[95] 0
x[96] 0
x[97] 1
x[98] 1
x[99] 0
x[100] 0
x[101] 0
x[102] 1
x[103] 1
x[104] 1
x[105] 1
x[106] 0
x[107] 0
x[108] 0
x[109] 0
x[110] 1
x[111] 1
x[112] 1
x[113] 1
x[114] 1
x[115] 0
x[116] 1
x[117] 1
x[118] 0
x[119] 0
x[120] 1
x[121] 1
x[122] 1
x[123] 1
x[124] 0
x[125] 1
x[126] 0
x[127] 0
x[128] 1
x[129] 0
x[130] 0
x[131] 1
x[132] 1
x[133] 1
x[134] 0
x[135] 1
x[136] 0
x[137] 0
x[138] 0
x[139] 1
x[140] 1
x[141] 0
x[142] 1
x[143] 0
x[144] 0
x[145] 1
x[146] 0
x[147] 1
x[148] 0
x[149] 1
x[150] 1
x[151] 1
x[152] 1
x[153] 1
x[154] 1
x[155] 1
x[156] 1
x[157] 0
x[158] 1
x[159] 0
x[160] 0
x[161] 1
x[162] 0
x[163] 0
x[164] 1
x[165] 1
x[166] 1
x[167] 0
x[168] 1
x[169] 0
x[170] 1
x[171] 0
x[172] 0
x[173] 1
x[174] 1
x[175] 1
x[176] 1
x[177] 0
x[178] 1
x[179] 1
x[180] 0
x[181] 0
x[182] 0
x[183] 1
x[184] 1
x[185] 0
x[186] 1
x[187] 1
x[188] 1
x[189] 1
x[190] 1
x[191] 1
x[192] 1
x[193] 0
x[194] 1
x[195] 1
x[196] 0
x[197] 1
x[198] 1
x[199] 0
x[200] 1
x[201] 0
x[202] 1
x[203] 1
x[204] 1
x[205] 1
x[206] 0
x[207] 0
x[208] 1
x[209] 0
x[210] 1
x[211] 1
x[212] 1
x[213] 0
x[214] 0
x[215] 1
x[216] 0
x[217] 0
x[218] 0
x[219] 0
x[220] 0
x[221] 1
x[222] 1
x[223] 0
x[224] 1
x[225] 1
x[226] 0
x[227] 0
x[228] 1
x[229] 1
x[230] 0
x[231] 1
x[232] 1
x[233] 1
x[234] 1
x[235] 1
x[236] 1
x[237] 1
x[238] 1
x[239] 0
x[240] 0
x[241] 0
x[242] 0
x[243] 0
x[244] 1
x[245] 0
x[246] 1
x[247] 1
x[248] 1
x[249] 0
x[250] 1
x[251] 0
x[252] 0
x[253] 1
x[254] 1
x[255] 1
x[256] 0
x[257] 0
x[258] 0
x[259] 0
x[260] 1
x[261] 0
x[262] 1
x[263] 0
x[264] 1
x[265] 1
x[266] 0
x[267] 1
x[268] 0
x[269] 1
x[270] 0
x[271] 0
x[272] 0
x[273] 0
x[274] 1
x[275] 0
x[276] 0
x[277] 1
x[278] 1
x[279] 1
x[280] 0
x[281] 0
x[282] 0
x[283] 0
x[284] 1
x[285] 1
x[286] 0
x[287] 1
x[288] 0
x[289] 0
x[290] 0
x[291] 1
x[292] 0
x[293] 0
x[294] 1
x[295] 1
x[296] 0
x[297] 1
x[298] 0
x[299] 0
x[300] 1
x[301] 0
x[302] 1
x[303] 0
x[304] 1
x[305] 1
x[306] 0
x[307] 0
x[308] 0
x[309] 0
x[310] 0
x[311] 1
x[312] 1
x[313] 0
x[314] 0
x[315] 1
x[316] 0
x[317] 1
x[318] 0
x[319] 0
x[320] 1
x[321] 0
x[322] 1
x[323] 1
x[324] 1
x[325] 0
x[326] 0
x[327] 1
x[328] 1
x[329] 1
x[330] 1
x[331] 0
x[332] 0
x[333] 1
x[334] 0
x[335] 1
x[336] 0
x[337] 0
x[338] 1
x[339] 0
x[340] 0
x[341] 0
x[342] 1
x[343] 1
x[344] 1
x[345] 1
x[346] 0
x[347] 0
x[348] 0
x[349] 1
x[350] 1
x[351] 1
x[352] 0
x[353] 1
x[354] 1
x[355] 0
x[356] 0
x[357] 1
x[358] 1
x[359] 1
x[360] 0
x[361] 1
x[362] 0
x[363] 1
x[364] 0
x[365] 0
x[366] 1
x[367] 1
x[368] 0
x[369] 1
x[370] 1
x[371] 1
x[372] 1
x[373] 1
x[374] 0
x[375] 0
x[376] 1
x[377] 1
x[378] 1
x[379] 1
x[380] 1
x[381] 0
x[382] 1
x[383] 1
x[384] 1
x[385] 0
x[386] 0
x[387] 1
x[388] 0
x[389] 0
x[390] 1
x[391] 1
x[392] 0
x[393] 0
x[394] 1
x[395] 1
x[396] 1
x[397] 0
x[398] 0
x[399] 1
x[400] 1
x[401] 0
x[402] 1
x[403] 0
x[404] 0
x[405] 1
x[406] 1
x[407] 0
x[408] 0
x[409] 1
x[410] 0
x[411] 0
x[412] 0
x[413] 1
x[414] 1
x[415] 1
x[416] 0
x[417] 1
x[418] 1
x[419] 1
x[420] 0
x[421] 1
x[422] 1
x[423] 0
x[424] 0
x[425] 1
x[426] 0
x[427] 1
x[428] 0
x[429] 1
x[430] 0
x[431] 0
x[432] 1
x[433] 0
x[434] 1
x[435] 1
x[436] 1
x[437] 0
x[438] 1
x[439] 0
x[440] 1
x[441] 1
x[442] 1
x[443] 1
x[444] 1
x[445] 0
x[446] 1
x[447] 1
x[448] 1
x[449] 0
x[450] 1
x[451] 1
x[452] 1
x[453] 0
x[454] 0
x[455] 1
x[456] 0
x[457] 1
x[458] 0
x[459] 0
x[460] 1
x[461] 1
x[462] 0
x[463] 1
x[464] 1
x[465] 1
x[466] 1
x[467] 1
x[468] 0
x[469] 1
x[470] 1
x[471] 1
x[472] 0
x[473] 1
x[474] 1
x[475] 1
x[476] 1
x[477] 1
x[478] 0
x[479] 0
x[480] 1
x[481] 1
x[482] 0
x[483] 0
x[484] 1
x[485] 1
x[486] 0
x[487] 0
x[488] 1
x[489] 0
x[490] 1
x[491] 1
x[492] 1
x[493] 1
x[494] 1
x[495] 0
x[496] 0
x[497] 1
x[498] 0
x[499] 1
x[500] 0
x[501] 0
x[502] 1
x[503] 0
x[504] 1
x[505] 1
x[506] 0
x[507] 0
x[508] 1
x[509] 1
x[510] 1
x[511] 1
x[512] 1
x[513] 0
x[514] 1
x[515] 0
x[516] 0
x[517] 0
x[518] 0
x[519] 0
x[520] 1
x[521] 0
x[522] 1
x[523] 0
x[524] 0
x[525] 0
x[526] 1
x[527] 1
x[528] 1
x[529] 0
x[530] 1
x[531] 1
x[532] 0
x[533] 0
x[534] 0
x[535] 0
x[536] 0
x[537] 1
x[538] 0
x[539] 0
x[540] 1
x[541] 0
x[542] 1
x[543] 0
x[544] 1
x[545] 0
x[546] 1
x[547] 1
x[548] 0
x[549] 1
x[550] 0
x[551] 1
x[552] 1
x[553] 0
x[554] 1
x[555] 1
x[556] 0
x[557] 0
x[558] 1
x[559] 0
x[560] 1
x[561] 1
x[562] 1
x[563] 1
x[564] 1
x[565] 0
x[566] 0
x[567] 1
x[568] 0
x[569] 0
x[570] 0
x[571] 0
x[572] 1
x[573] 0
x[574] 0
x[575] 1
x[576] 1
x[577] 1
x[578] 1
x[579] 1
x[580] 1
x[581] 1
x[582] 1
x[583] 1
x[584] 1
x[585] 0
x[586] 1
x[587] 0
x[588] 1
x[589] 1
x[590] 1
x[591] 0
x[592] 1
x[593] 0
x[594] 1
x[595] 1
x[596] 1
x[597] 1
x[598] 0
x[599] 0
x[600] 1
x[601] 1
x[602] 0
x[603] 0
x[604] 0
x[605] 0
x[606] 0
x[607] 0
x[608] 0
x[609] 1
x[610] 0
x[611] 1
x[612] 1
x[613] 0
x[614] 0
x[615] 1
x[616] 0
x[617] 0
x[618] 1
x[619] 1
x[620] 1
x[621] 0
x[622] 1
x[623] 0
x[624] 0
x[625] 1
x[626] 0
x[627] 0
x[628] 1
x[629] 0
x[630] 0
x[631] 1
x[632] 1
x[633] 0
x[634] 0
x[635] 1
x[636] 0
x[637] 1
x[638] 1
x[639] 0
x[640] 1
x[641] 0
x[642] 1
x[643] 1
x[644] 1
x[645] 0
x[646] 1
x[647] 0
x[648] 0
x[649] 1
x[650] 0
x[651] 0
x[652] 1
x[653] 1
x[654] 0
x[655] 1
x[656] 0
x[657] 1
x[658] 1
x[659] 1
x[660] 0
x[661] 1
x[662] 1
x[663] 1
x[664] 1
x[665] 0
x[666] 1
x[667] 0
x[668] 0
x[669] 0
x[670] 0
x[671] 0
x[672] 1
x[673] 1
x[674] 0
x[675] 1
x[676] 0
x[677] 1
x[678] 0
x[679] 0
x[680] 1
x[681] 1
x[682] 1
x[683] 1
x[684] 0
x[685] 1
x[686] 1
x[687] 1
x[688] 1
x[689] 1
x[690] 0
x[691] 1
x[692] 1
x[693] 0
x[694] 0
x[695] 1
x[696] 0
x[697] 1
x[698] 0
x[699] 1
x[700] 0
x[701] 1
x[702] 1
x[703] 0
x[704] 0
x[705] 1
x[706] 1
x[707] 0
x[708] 0
x[709] 0
x[710] 1
x[711] 0
x[712] 1
x[713] 1
x[714] 1
x[715] 0
x[716] 1
x[717] 1
x[718] 1
x[719] 0
x[720] 0
x[721] 1
x[722] 1
x[723] 1
x[724] 0
x[725] 1
x[726] 1
x[727] 0
x[728] 0
x[729] 1
x[730] 0
x[731] 1
x[732] 0
x[733] 1
x[734] 1
x[735] 1
x[736] 1
x[737] 1
x[738] 1
x[739] 1
x[740] 1
x[741] 1
x[742] 0
x[743] 1
x[744] 1
x[745] 0
x[746] 1
x[747] 1
x[748] 1
x[749] 1
x[750] 1
x[751] 0
x[752] 1
x[753] 0
x[754] 0
x[755] 1
x[756] 0
x[757] 1
x[758] 1
x[759] 1
x[760] 0
x[761] 0
x[762] 1
x[763] 1
x[764] 0
x[765] 0
x[766] 1
x[767] 0
x[768] 1
x[769] 1
x[770] 1
x[771] 0
x[772] 0
x[773] 1
x[774] 1
x[775] 0
x[776] 0
x[777] 1
x[778] 1
x[779] 0
x[780] 1
x[781] 1
x[782] 0
x[783] 0
x[784] 0
x[785] 1
x[786] 1
x[787] 0
x[788] 0
x[789] 1
x[790] 0
x[791] 1
x[792] 1
x[793] 1
x[794] 0
x[795] 1
x[796] 0
x[797] 1
x[798] 1
x[799] 0
x[800] 1
x[801] 0
x[802] 1
x[803] 1
x[804] 1
x[805] 0
x[806] 1
x[807] 1
x[808] 1
x[809] 1
x[810] 0
x[811] 1
x[812] 1
x[813] 0
x[814] 0
x[815] 1
x[816] 0
x[817] 0
x[818] 1
x[819] 1
x[820] 1
x[821] 0
x[822] 1
x[823] 0
x[824] 0
x[825] 0
x[826] 1
x[827] 1
x[828] 1
x[829] 0
x[830] 0
x[831] 1
x[832] 0
x[833] 0
x[834] 0
x[835] 1
x[836] 0
x[837] 1
x[838] 1
x[839] 0
x[840] 0
x[841] 0
x[842] 0
x[843] 0
x[844] 1
x[845] 0
x[846] 1
x[847] 1
x[848] 0
x[849] 1
x[850] 1
x[851] 0
x[852] 1
x[853] 0
x[854] 0
x[855] 0
x[856] 1
x[857] 1
x[858] 1
x[859] 1
x[860] 1
x[861] 1
x[862] 1
x[863] 0
x[864] 1
x[865] 0
x[866] 1
x[867] 1
x[868] 1
x[869] 0
x[870] 1
x[871] 0
x[872] 1
x[873] 0
x[874] 1
x[875] 1
x[876] 1
x[877] 1
x[878] 1
x[879] 0
x[880] 1
x[881] 0
x[882] 1
x[883] 0
x[884] 0
x[885] 1
x[886] 0
x[887] 0
x[888] 0
x[889] 0
x[890] 1
x[891] 1
x[892] 1
x[893] 1
x[894] 0
x[895] 1
x[896] 1
x[897] 1
x[898] 1
x[899] 0
x[900] 0
x[901] 0
x[902] 1
x[903] 0
x[904] 1
x[905] 0
x[906] 1
x[907] 1
x[908] 0
x[909] 0
x[910] 1
x[911] 0
x[912] 1
x[913] 0
x[914] 1
x[915] 0
x[916] 0
x[917] 1
x[918] 1
x[919] 0
x[920] 1
x[921] 1
x[922] 0
x[923] 1
x[924] 1
x[925] 1
x[926] 1
x[927] 1
x[928] 0
x[929] 1
x[930] 1
x[931] 1
x[932] 1
x[933] 1
x[934] 0
x[935] 0
x[936] 1
x[937] 1
x[938] 0
x[939] 0
x[940] 1
x[941] 1
x[942] 1
x[943] 0
x[944] 0
x[945] 1
x[946] 1
x[947] 0
x[948] 1
x[949] 0
x[950] 1
x[951] 1
x[952] 0
x[953] 1
x[954] 1
x[955] 0
x[956] 0
x[957] 1
x[958] 1
x[959] 1
x[960] 0
x[961] 1
x[962] 1
x[963] 1
x[964] 1
x[965] 1
x[966] 0
x[967] 1
x[968] 1
x[969] 1
x[970] 1
x[971] 1
x[972] 0
x[973] 1
x[974] 0
x[975] 1
x[976] 1
x[977] 1
x[978] 0
x[979] 1
x[980] 1
x[981] 0
x[982] 0
x[983] 0
x[984] 0
x[985] 0
x[986] 0
x[987] 1
x[988] 0
x[989] 0
x[990] 0
x[991] 1
x[992] 1
x[993] 1
x[994] 0
x[995] 1
x[996] 1
x[997] 1
x[998] 1
x[999] 0
